(declare-fun a_ack!194 () (_ BitVec 32))
(declare-fun b_ack!193 () (_ BitVec 64))
(assert (not (bvslt a_ack!194 #x00000000)))
(assert (not (fp.lt ((_ to_fp 11 53) b_ack!193) ((_ to_fp 11 53) #xbff0000000000000))))
(assert (not (fp.gt ((_ to_fp 11 53) b_ack!193) ((_ to_fp 11 53) #x3ff0000000000000))))
(assert (= #x00000000 a_ack!194))
(assert (bvsle #x00000000 a_ack!194))
(assert (bvsle #x00000001 a_ack!194))

(check-sat)
(exit)
